SDVRP instances/p11/p11_1090_tsplib0_split0.vrp
NAME:.\SDVRP_split
BEST_KNOWN: 0
COMMENT: 0
DIMENSION: 723
CAPACITY: 200
EDGE_WEIGHT_FORMAT: FUNCTION
EDGE_WEIGHT_TYPE: EXACT_2D
NODE_COORD_SECTION
1 0.00000 0.00000
2 15 -44
3 15 -44
4 15 -44
5 15 -44
6 15 -44
7 15 -44
8 15 -44
9 15 -44
10 15 -42
11 15 -42
12 15 -42
13 15 -42
14 21 -40
15 21 -40
16 21 -40
17 21 -40
18 21 -40
19 22 -40
20 22 -40
21 22 -40
22 22 -40
23 22 -40
24 22 -40
25 22 -40
26 22 -40
27 21 -38
28 21 -38
29 21 -38
30 21 -38
31 21 -38
32 21 -38
33 21 -38
34 22 -36
35 22 -36
36 22 -36
37 22 -36
38 22 -36
39 22 -36
40 22 -36
41 22 -36
42 22 -36
43 24 -36
44 24 -36
45 24 -36
46 24 -36
47 24 -36
48 24 -36
49 24 -36
50 24 -36
51 36 -36
52 36 -36
53 36 -36
54 36 -36
55 36 -36
56 36 -36
57 25 -38
58 25 -38
59 25 -38
60 25 -38
61 24 -39
62 24 -39
63 24 -39
64 24 -39
65 25 -40
66 25 -40
67 25 -40
68 25 -40
69 25 -40
70 25 -40
71 25 -40
72 25 -40
73 25 -40
74 37 -39
75 37 -39
76 37 -39
77 37 -39
78 30 -40
79 30 -40
80 30 -40
81 30 -40
82 30 -40
83 29 -42
84 29 -42
85 29 -42
86 29 -42
87 29 -42
88 26 -42
89 26 -42
90 26 -42
91 26 -42
92 26 -42
93 63 -39
94 63 -39
95 63 -39
96 63 -39
97 63 -39
98 63 -39
99 63 -37
100 63 -37
101 63 -37
102 63 -37
103 14 -9
104 14 -9
105 14 -9
106 14 -9
107 66 -39
108 66 -39
109 66 -39
110 66 -39
111 66 -39
112 66 -39
113 66 -39
114 66 -39
115 66 -35
116 66 -35
117 66 -35
118 66 -35
119 66 -35
120 66 -35
121 66 -35
122 66 -32
123 66 -32
124 66 -32
125 66 -32
126 66 -32
127 68 -42
128 68 -42
129 68 -42
130 68 -42
131 68 -36
132 68 -36
133 68 -36
134 68 -36
135 68 -36
136 69 -42
137 69 -42
138 69 -42
139 69 -42
140 69 -42
141 69 -42
142 69 -40
143 69 -40
144 69 -40
145 69 -40
146 69 -40
147 69 -40
148 69 -40
149 69 -40
150 69 -34
151 69 -34
152 69 -34
153 69 -34
154 69 -34
155 69 -34
156 69 -34
157 69 -34
158 72 -42
159 72 -42
160 72 -42
161 72 -42
162 72 -38
163 72 -38
164 72 -38
165 72 -38
166 72 -38
167 72 -38
168 80 -30
169 80 -30
170 80 -30
171 74 -42
172 74 -42
173 74 -42
174 74 -42
175 74 -42
176 74 -40
177 74 -40
178 74 -40
179 74 -40
180 74 -40
181 74 -40
182 74 -40
183 74 -40
184 74 -36
185 74 -36
186 74 -36
187 74 -36
188 74 -36
189 74 -36
190 74 -36
191 74 -36
192 75 -44
193 75 -44
194 75 -44
195 75 -44
196 75 -44
197 75 -44
198 77 -40
199 77 -40
200 77 -40
201 77 -40
202 75 -37
203 75 -37
204 75 -37
205 75 -37
206 75 -37
207 75 -37
208 75 -37
209 75 -37
210 77 -38
211 77 -38
212 77 -38
213 77 -38
214 77 -38
215 77 -38
216 76 -4
217 76 -4
218 76 -4
219 76 -4
220 76 -4
221 76 -4
222 76 -1
223 76 -1
224 76 -1
225 76 -1
226 76 -1
227 76 -1
228 76 -1
229 76 1
230 76 1
231 76 1
232 76 1
233 76 1
234 76 1
235 76 1
236 75 10
237 75 10
238 75 10
239 75 10
240 75 10
241 75 10
242 75 10
243 79 -2
244 79 -2
245 79 1
246 79 1
247 79 7
248 79 7
249 79 7
250 79 7
251 82 -3
252 82 -3
253 82 -3
254 82 -3
255 82 -3
256 82 -3
257 82 7
258 82 7
259 82 7
260 82 7
261 84 -3
262 84 -3
263 84 -3
264 84 -3
265 84 -3
266 84 -1
267 84 -1
268 84 -1
269 84 -1
270 84 -1
271 84 -1
272 84 -1
273 84 -1
274 84 3
275 84 3
276 84 3
277 84 3
278 84 3
279 84 3
280 84 3
281 86 -3
282 86 -3
283 86 -3
284 86 -3
285 86 -3
286 86 -3
287 86 -3
288 86 -3
289 89 1
290 89 1
291 89 1
292 89 1
293 89 1
294 89 1
295 89 1
296 89 1
297 89 1
298 89 5
299 89 5
300 89 5
301 89 5
302 89 5
303 89 5
304 73 35
305 73 35
306 73 35
307 73 35
308 73 35
309 73 35
310 73 38
311 73 38
312 73 38
313 75 36
314 75 36
315 75 36
316 75 36
317 75 36
318 75 36
319 75 36
320 75 36
321 75 40
322 75 40
323 75 40
324 75 40
325 75 40
326 75 40
327 75 40
328 75 40
329 75 40
330 75 44
331 75 44
332 75 44
333 75 44
334 75 44
335 75 44
336 75 44
337 77 35
338 77 35
339 77 35
340 77 35
341 77 35
342 77 35
343 77 35
344 77 41
345 77 41
346 77 41
347 77 41
348 77 41
349 80 32
350 80 32
351 80 32
352 80 32
353 80 43
354 80 43
355 80 43
356 80 43
357 80 43
358 83 37
359 83 37
360 83 37
361 83 37
362 83 37
363 83 39
364 83 39
365 83 39
366 83 44
367 83 44
368 83 44
369 84 41
370 84 41
371 84 41
372 84 41
373 84 41
374 84 41
375 85 35
376 85 35
377 85 35
378 85 35
379 85 35
380 85 35
381 89 44
382 89 44
383 89 44
384 89 44
385 89 44
386 89 44
387 27 38
388 27 38
389 27 38
390 27 38
391 27 38
392 27 38
393 27 38
394 27 38
395 40 35
396 40 35
397 40 35
398 40 35
399 25 40
400 25 40
401 25 40
402 25 40
403 25 40
404 25 40
405 25 40
406 25 40
407 25 40
408 25 42
409 25 42
410 25 42
411 25 42
412 25 42
413 25 42
414 25 42
415 25 42
416 25 42
417 34 41
418 34 41
419 34 41
420 34 41
421 34 41
422 34 41
423 36 44
424 36 44
425 36 44
426 36 44
427 36 44
428 36 44
429 36 38
430 36 38
431 36 38
432 36 38
433 36 38
434 36 38
435 36 38
436 36 42
437 36 42
438 36 42
439 36 42
440 36 42
441 36 42
442 36 42
443 36 42
444 36 42
445 36 42
446 36 44
447 36 44
448 36 44
449 36 44
450 36 44
451 38 38
452 38 38
453 38 38
454 38 38
455 40 40
456 40 40
457 40 40
458 40 40
459 40 40
460 40 40
461 40 43
462 40 43
463 40 43
464 40 43
465 40 43
466 40 43
467 40 43
468 44 41
469 44 41
470 44 41
471 44 41
472 44 41
473 44 45
474 44 45
475 44 45
476 44 45
477 44 45
478 44 45
479 44 45
480 44 45
481 0 -10
482 0 -10
483 0 -10
484 0 -10
485 0 -10
486 0 -10
487 0 -5
488 0 -5
489 0 -5
490 0 -5
491 0 -5
492 8 -15
493 8 -15
494 8 -15
495 8 -15
496 8 -15
497 8 -15
498 8 -15
499 8 -15
500 7 -10
501 7 -10
502 7 -10
503 7 -10
504 6 -7
505 6 -7
506 6 -7
507 6 -7
508 6 -7
509 6 -7
510 6 -7
511 6 -7
512 6 -7
513 4 -5
514 4 -5
515 4 -5
516 4 -5
517 4 -5
518 4 -5
519 5 -3
520 5 -3
521 5 -3
522 5 -3
523 5 -3
524 5 -3
525 5 -3
526 5 -3
527 5 -3
528 1 -3
529 1 -3
530 1 -3
531 1 -3
532 1 -3
533 1 -3
534 1 -3
535 1 -3
536 1 -3
537 8 -5
538 8 -5
539 8 -5
540 8 -5
541 8 -5
542 8 -5
543 8 -5
544 8 -5
545 11 -6
546 11 -6
547 11 -6
548 11 -6
549 11 -6
550 11 -6
551 11 -6
552 10 -5
553 10 -5
554 10 -5
555 10 -5
556 10 -5
557 8 -4
558 8 -4
559 8 -4
560 8 -4
561 8 -4
562 10 -1
563 10 -1
564 10 -1
565 10 -1
566 10 -1
567 10 -1
568 12 -1
569 12 -1
570 12 -1
571 12 -1
572 12 -1
573 6 0
574 6 0
575 6 0
576 6 0
577 6 0
578 6 0
579 6 0
580 6 0
581 10 0
582 10 0
583 10 0
584 10 0
585 10 0
586 10 0
587 10 0
588 15 0
589 15 0
590 15 0
591 15 0
592 15 0
593 15 0
594 20 10
595 20 10
596 20 10
597 20 10
598 20 10
599 20 10
600 10 5
601 10 5
602 10 5
603 10 5
604 10 5
605 12 6
606 12 6
607 12 6
608 12 6
609 12 6
610 8 4
611 8 4
612 8 4
613 8 4
614 8 4
615 8 4
616 8 4
617 6 3
618 6 3
619 6 3
620 6 3
621 6 3
622 6 3
623 6 3
624 6 3
625 10 10
626 10 10
627 10 10
628 10 10
629 8 8
630 8 8
631 8 8
632 8 8
633 8 8
634 8 8
635 4 5
636 4 5
637 4 5
638 5 6
639 5 6
640 5 6
641 5 6
642 5 6
643 6 9
644 6 9
645 6 9
646 6 9
647 18 -12
648 18 -12
649 18 -12
650 18 -12
651 18 -12
652 18 -12
653 18 -12
654 18 -12
655 23 -7
656 23 -7
657 23 -7
658 20 5
659 20 5
660 20 5
661 20 5
662 20 5
663 20 5
664 20 5
665 20 5
666 3 -5
667 3 -5
668 3 -5
669 3 -5
670 3 -5
671 3 -5
672 3 -5
673 3 -5
674 5 -9
675 5 -9
676 5 -9
677 5 -9
678 5 -9
679 5 -9
680 8 -14
681 8 -14
682 15 -8
683 15 -8
684 15 -8
685 15 -8
686 15 -8
687 15 -8
688 15 -8
689 20 1
690 20 1
691 20 1
692 20 1
693 15 7
694 15 7
695 15 7
696 6 -12
697 6 -12
698 6 -12
699 6 -12
700 6 -12
701 6 -12
702 6 -12
703 6 -12
704 15 -10
705 15 -10
706 15 -10
707 15 -10
708 15 -10
709 15 -10
710 15 -10
711 -5 -5
712 -5 -5
713 -5 -5
714 -5 -5
715 -5 -5
716 -5 5
717 -5 5
718 -5 5
719 -5 5
720 -5 5
721 -5 5
722 -5 5
723 -5 5
DEMAND_SECTION
1 0
2 40
3 40
4 40
5 20
6 10
7 2
8 2
9 2
10 40
11 40
12 2
13 1
14 40
15 10
16 2
17 2
18 2
19 40
20 40
21 20
22 2
23 2
24 2
25 2
26 1
27 40
28 40
29 40
30 40
31 2
32 2
33 1
34 40
35 40
36 40
37 20
38 10
39 2
40 2
41 2
42 1
43 40
44 40
45 10
46 2
47 2
48 2
49 2
50 1
51 20
52 10
53 2
54 2
55 2
56 1
57 40
58 10
59 2
60 1
61 20
62 2
63 2
64 1
65 40
66 40
67 40
68 20
69 2
70 2
71 2
72 2
73 1
74 40
75 40
76 2
77 1
78 40
79 40
80 10
81 2
82 2
83 40
84 40
85 20
86 2
87 1
88 40
89 40
90 40
91 10
92 2
93 40
94 20
95 2
96 2
97 2
98 1
99 20
100 10
101 2
102 1
103 40
104 40
105 20
106 1
107 40
108 40
109 40
110 20
111 10
112 2
113 2
114 2
115 40
116 40
117 20
118 2
119 2
120 2
121 1
122 20
123 10
124 2
125 2
126 2
127 40
128 40
129 40
130 1
131 40
132 40
133 40
134 2
135 2
136 40
137 40
138 20
139 10
140 2
141 1
142 40
143 40
144 40
145 20
146 2
147 2
148 2
149 1
150 40
151 40
152 40
153 10
154 2
155 2
156 2
157 1
158 20
159 2
160 2
161 1
162 40
163 40
164 40
165 20
166 2
167 2
168 40
169 2
170 2
171 20
172 10
173 2
174 2
175 2
176 40
177 40
178 40
179 20
180 10
181 2
182 2
183 2
184 40
185 40
186 40
187 20
188 2
189 2
190 2
191 2
192 40
193 40
194 40
195 20
196 10
197 2
198 40
199 10
200 2
201 2
202 40
203 40
204 40
205 20
206 10
207 2
208 2
209 1
210 40
211 40
212 10
213 2
214 2
215 2
216 40
217 40
218 40
219 20
220 2
221 2
222 40
223 40
224 10
225 2
226 2
227 2
228 1
229 40
230 40
231 10
232 2
233 2
234 2
235 1
236 40
237 40
238 40
239 20
240 10
241 2
242 1
243 40
244 10
245 20
246 10
247 40
248 40
249 40
250 1
251 40
252 40
253 40
254 2
255 2
256 2
257 40
258 40
259 40
260 40
261 40
262 20
263 2
264 2
265 1
266 40
267 40
268 10
269 2
270 2
271 2
272 2
273 1
274 40
275 40
276 2
277 2
278 2
279 2
280 1
281 40
282 40
283 40
284 20
285 10
286 2
287 2
288 1
289 40
290 40
291 20
292 10
293 2
294 2
295 2
296 2
297 1
298 40
299 40
300 40
301 2
302 2
303 2
304 40
305 40
306 40
307 2
308 2
309 1
310 20
311 10
312 2
313 40
314 40
315 40
316 40
317 2
318 2
319 2
320 1
321 40
322 40
323 40
324 10
325 2
326 2
327 2
328 2
329 1
330 40
331 40
332 40
333 10
334 2
335 2
336 2
337 40
338 20
339 2
340 2
341 2
342 2
343 1
344 40
345 40
346 40
347 10
348 2
349 40
350 40
351 2
352 2
353 40
354 20
355 10
356 2
357 2
358 40
359 40
360 40
361 40
362 1
363 40
364 20
365 2
366 40
367 20
368 10
369 40
370 20
371 2
372 2
373 2
374 1
375 40
376 20
377 10
378 2
379 2
380 2
381 40
382 40
383 10
384 2
385 2
386 2
387 40
388 40
389 40
390 20
391 10
392 2
393 2
394 2
395 20
396 10
397 2
398 2
399 40
400 40
401 40
402 40
403 10
404 2
405 2
406 2
407 1
408 40
409 40
410 40
411 20
412 10
413 2
414 2
415 2
416 2
417 40
418 40
419 40
420 40
421 10
422 1
423 40
424 40
425 40
426 40
427 2
428 1
429 40
430 40
431 40
432 20
433 10
434 2
435 2
436 40
437 40
438 40
439 40
440 10
441 2
442 2
443 2
444 2
445 1
446 20
447 2
448 2
449 2
450 2
451 40
452 20
453 10
454 2
455 40
456 40
457 20
458 10
459 2
460 1
461 40
462 40
463 40
464 10
465 2
466 2
467 1
468 40
469 40
470 20
471 10
472 1
473 40
474 40
475 40
476 20
477 2
478 2
479 2
480 2
481 40
482 40
483 40
484 2
485 2
486 1
487 40
488 20
489 2
490 2
491 1
492 40
493 40
494 40
495 2
496 2
497 2
498 2
499 1
500 40
501 40
502 40
503 2
504 40
505 40
506 40
507 40
508 10
509 2
510 2
511 2
512 1
513 40
514 40
515 40
516 20
517 2
518 2
519 40
520 40
521 40
522 40
523 10
524 2
525 2
526 2
527 1
528 40
529 40
530 40
531 20
532 2
533 2
534 2
535 2
536 1
537 40
538 40
539 40
540 20
541 10
542 2
543 2
544 2
545 20
546 10
547 2
548 2
549 2
550 2
551 1
552 40
553 40
554 40
555 20
556 10
557 40
558 40
559 20
560 10
561 2
562 40
563 2
564 2
565 2
566 2
567 1
568 40
569 40
570 40
571 40
572 10
573 40
574 40
575 40
576 2
577 2
578 2
579 2
580 1
581 40
582 40
583 40
584 20
585 2
586 2
587 2
588 40
589 40
590 40
591 20
592 2
593 1
594 40
595 40
596 2
597 2
598 2
599 2
600 40
601 40
602 40
603 20
604 2
605 20
606 10
607 2
608 2
609 2
610 40
611 40
612 40
613 2
614 2
615 2
616 1
617 40
618 40
619 40
620 20
621 2
622 2
623 2
624 1
625 40
626 40
627 40
628 20
629 40
630 40
631 40
632 40
633 10
634 2
635 40
636 40
637 10
638 40
639 10
640 2
641 2
642 1
643 20
644 10
645 2
646 2
647 40
648 40
649 20
650 2
651 2
652 2
653 2
654 1
655 40
656 20
657 10
658 40
659 40
660 40
661 40
662 2
663 2
664 2
665 1
666 40
667 40
668 40
669 40
670 2
671 2
672 2
673 1
674 40
675 40
676 40
677 2
678 2
679 2
680 20
681 2
682 40
683 20
684 2
685 2
686 2
687 2
688 1
689 40
690 40
691 40
692 10
693 40
694 40
695 2
696 40
697 20
698 10
699 2
700 2
701 2
702 2
703 1
704 40
705 40
706 40
707 20
708 10
709 2
710 1
711 40
712 40
713 40
714 20
715 2
716 40
717 40
718 40
719 40
720 2
721 2
722 2
723 2
DEPOT_SECTION
1
-1
EOF