SDVRP instances/p11/p11_1090_tsplib0_split0.sol
722 -8 2 5 1 6 4 7 3 10 -11 9 12 13 17 14 16 15 25 18 22 19 62 38 39 37 -27 26 30 29 32 31 28 21 23 20 24 498 497 496 495 -40 36 34 35 41 33 46 44 42 45 48 -47 43 49 71 67 91 89 90 87 88 61 63 -54 52 55 51 50 53 74 73 75 76 94 92 95 97 93 96 99 101 -59 58 56 57 69 72 64 70 65 66 68 60 -78 81 80 77 79 84 85 83 82 86 -100 98 147 145 178 182 181 176 180 185 190 186 187 184 -108 106 109 107 114 116 -110 160 157 170 171 174 173 177 179 175 132 134 133 -111 112 113 148 146 142 141 144 143 117 118 115 -119 120 131 161 163 162 165 166 164 125 122 -123 124 121 152 151 153 150 154 155 149 130 -126 128 137 140 139 135 138 136 -129 127 158 159 196 194 191 195 193 192 172 -156 201 208 207 202 205 203 204 206 183 189 188 -169 168 167 214 209 212 211 210 213 199 198 200 197 -216 261 266 267 268 271 270 269 274 273 -218 217 219 220 215 222 224 223 227 221 -226 225 265 272 286 287 282 283 285 284 280 281 -228 229 233 655 654 656 682 684 687 104 549 548 -231 234 230 232 279 275 278 276 277 301 300 297 298 299 302 246 -237 238 239 241 240 236 235 249 247 -243 242 251 252 255 250 253 254 571 -244 245 295 294 290 289 292 291 296 293 288 260 262 264 263 -248 256 258 259 257 -303 307 306 304 305 308 340 336 341 337 -311 310 309 315 314 313 317 318 316 319 312 -325 322 328 320 365 355 356 352 354 353 -327 323 326 324 321 343 345 344 346 347 -330 335 332 329 331 455 459 458 433 434 431 -333 334 367 366 380 385 383 382 384 381 369 372 371 370 368 373 -339 338 342 362 363 364 360 361 349 351 348 350 -357 358 359 378 377 376 374 375 379 -386 391 392 387 389 390 393 399 401 -388 418 419 417 416 -395 394 397 396 452 451 428 429 432 430 -403 398 405 400 404 406 402 421 420 439 438 444 436 -408 409 411 414 407 415 412 410 413 -443 442 435 441 437 440 456 454 457 450 453 -445 423 446 426 448 425 422 424 449 427 447 -462 460 465 461 463 464 466 473 475 -470 467 469 468 471 474 472 478 476 477 479 -485 481 484 480 482 483 486 487 488 489 490 -501 502 499 500 701 698 696 673 -510 505 508 509 511 506 540 538 536 558 -513 514 512 667 666 -516 515 517 503 504 507 676 678 677 674 675 -521 518 520 574 573 -525 524 523 522 526 519 539 537 557 556 -533 527 710 713 711 714 712 -534 531 530 529 532 528 535 670 669 665 671 668 672 -541 542 543 103 105 102 706 704 709 703 708 707 -545 544 547 550 546 551 555 552 554 553 559 560 -565 563 562 566 561 564 584 583 582 581 577 572 579 578 576 575 -569 568 567 570 580 -586 585 589 587 590 588 591 592 688 691 -601 600 599 693 692 -602 603 694 598 596 593 594 597 595 657 662 663 664 658 661 -613 612 606 607 605 604 608 660 659 689 690 -618 610 611 637 634 -622 623 620 619 621 617 616 609 615 614 635 636 -627 626 625 624 642 644 643 645 -629 631 633 628 632 630 640 639 641 638 -679 680 491 494 493 492 695 697 700 699 702 -683 685 686 681 651 650 652 648 647 646 649 653 705 -717 715 716 718 722 720 721 719 0 





OBJ=
7079.250
BEST_KNOWN=
0.000